\ Model qp
\ LP format - for model browsing. Use MPS format to capture full model detail.
Maximize
  IS0 + IS1 + IS2 + IS3 + IS4 + IS5 + IS6 + IS7 + IS8 + IS9
Subject To
 Predicate-C-0.1: IS0 <= 0
 Predicate-C-1.1: IS1 <= 0
 Predicate-C-2.1: IS2 <= -0.0111786178912564
 Predicate-C-3.1: IS3 <= 0
 Predicate-C-4.1: IS4 <= 0
 Predicate-C-5.1: IS5 <= -0.00607197450317578
 Predicate-C-6.1: IS6 <= 0
 Predicate-C-7.1: IS7 <= 0
 Predicate-C-8.1: IS8 <= 0
 Predicate-C-9.1: IS9 <= 0
Bounds
 IS0 free
 IS1 free
 IS2 free
 IS3 free
 IS4 free
 IS5 free
 IS6 free
 IS7 free
 IS8 free
 IS9 free
End
